120
1000
199
199
198
198
198
197
197
196
196
194
193
193
193
192
191
191
191
190
190
190
190
189
189
188
187
187
185
185
185
184
184
183
182
182
182
181
181
181
181
181
179
179
179
179
178
177
177
177
177
177
177
176
176
176
176
175
175
175
174
174
173
172
172
171
171
171
171
170
170
169
169
169
167
167
166
166
165
165
165
165
165
165
165
165
164
163
163
163
162
162
162
161
159
159
159
158
158
157
157
157
157
157
157
156
156
155
155
155
154
154
152
152
151
151
151
150
150
150
150
150
